(set-option :produce-models true); benchmark generated from python API
(set-info :status unknown)
(declare-fun l_1_0_9 () Real)
(declare-fun l_1_0_8 () Real)
(declare-fun l_1_0_7 () Real)
(declare-fun l_1_0_3 () Real)
(declare-fun l_1_0_1 () Real)
(declare-fun _a_0_ () Real)
(declare-fun l_1_0_6 () Real)
(declare-fun l_1_0_5 () Real)
(declare-fun l_1_0_4 () Real)
(declare-fun l_1_0_2 () Real)
(declare-fun l_1_0_11 () Real)
(declare-fun l_1_0_10 () Real)
(declare-fun _a_1_ () Real)
(declare-fun _a_2_ () Real)
(declare-fun l_1_1_8 () Real)
(declare-fun l_1_1_6 () Real)
(declare-fun l_1_1_5 () Real)
(declare-fun l_1_1_3 () Real)
(declare-fun l_1_1_2 () Real)
(declare-fun l_1_1_15 () Real)
(declare-fun l_1_1_14 () Real)
(declare-fun l_1_1_12 () Real)
(declare-fun l_1_1_11 () Real)
(declare-fun l_1_1_10 () Real)
(declare-fun l_1_1_9 () Real)
(declare-fun l_1_1_7 () Real)
(declare-fun l_1_1_4 () Real)
(declare-fun l_1_1_13 () Real)
(declare-fun l_1_1_1 () Real)
(declare-fun l_1_1_17 () Real)
(declare-fun l_1_1_16 () Real)
(declare-fun l_1_2_9 () Real)
(declare-fun l_1_2_6 () Real)
(declare-fun l_1_2_4 () Real)
(declare-fun l_1_2_2 () Real)
(declare-fun l_1_2_15 () Real)
(declare-fun l_1_2_14 () Real)
(declare-fun l_1_2_13 () Real)
(declare-fun l_1_2_11 () Real)
(declare-fun l_1_2_10 () Real)
(declare-fun l_1_2_1 () Real)
(declare-fun l_1_2_8 () Real)
(declare-fun l_1_2_7 () Real)
(declare-fun l_1_2_5 () Real)
(declare-fun l_1_2_3 () Real)
(declare-fun l_1_2_12 () Real)
(declare-fun l_1_2_17 () Real)
(declare-fun l_1_2_16 () Real)
(assert
 (let ((?x28 (* l_1_0_9 l_1_0_9)))
 (let ((?x514 (- (- (- (- (- _a_0_ l_1_0_1) l_1_0_3) l_1_0_7) l_1_0_8) ?x28)))
 (= ?x514 0.0))))
(assert
 (let ((?x380 (+ (- (- _a_1_ (* l_1_0_10 l_1_0_10)) (* l_1_0_11 l_1_0_11)) l_1_0_2)))
 (= (+ (- (+ ?x380 l_1_0_4) (* 1.0 l_1_0_5)) l_1_0_6) 0.0)))
(assert
 (let ((?x414 (- (- _a_2_ (* (* 2.0 l_1_0_10) l_1_0_9)) (* 1.0 l_1_0_2))))
 (= (- (- ?x414 (* 1.0 l_1_0_4)) (* 1.0 l_1_0_6)) 0.0)))
(assert
 (= (* 2.0 l_1_0_5) 0.0))
(assert
 (= (- l_1_0_5) 0.0))
(assert
 (>= l_1_0_1 0.0))
(assert
 (>= l_1_0_2 0.0))
(assert
 (>= l_1_0_3 0.0))
(assert
 (>= l_1_0_4 0.0))
(assert
 (>= l_1_0_5 0.0))
(assert
 (>= l_1_0_6 0.0))
(assert
 (>= l_1_0_7 0.0))
(assert
 (>= l_1_0_8 0.0))
(assert
 (>= l_1_0_9 0.0))
(assert
 (>= l_1_0_11 0.0))
(assert
 (let ((?x248 (* (/ 2601.0 10000.0) l_1_1_8)))
 (let ((?x245 (* (/ 51.0 100.0) l_1_1_6)))
 (let ((?x281 (* (/ 51.0 100.0) l_1_1_5)))
 (let ((?x18 (* l_1_1_15 l_1_1_15)))
 (let ((?x144 (* (/ 51.0 100.0) l_1_1_12)))
 (let ((?x16 (* _a_0_ l_1_1_9)))
 (let ((?x19 (* _a_0_ l_1_1_4)))
 (let ((?x300 (- (+ (* (- _a_0_) l_1_1_1) (* (* (/ 51.0 100.0) _a_0_) l_1_1_13)) ?x19)))
 (let ((?x141 (- (- (- (+ ?x300 (* (* (/ 51.0 100.0) _a_0_) l_1_1_7)) ?x16) l_1_1_10) (* (* l_1_1_11 _a_0_) _a_0_))))
 (let ((?x282 (+ (- (- (- (- (+ ?x141 ?x144) l_1_1_14) ?x18) l_1_1_2) l_1_1_3) ?x281)))
 (= (+ (- (+ ?x282 ?x245) ?x248) (/ 3.0 2.0)) 0.0))))))))))))
(assert
 (let ((?x12 (* (/ 47.0 50.0) l_1_1_8)))
 (let ((?x105 (* l_1_1_17 l_1_1_17)))
 (let ((?x103 (* l_1_1_16 l_1_1_16)))
 (let ((?x121 (* _a_1_ l_1_1_9)))
 (let ((?x9 (- (- (- (* (- _a_1_) l_1_1_1) (* _a_1_ l_1_1_4)) ?x121) (* l_1_1_11 (+ (* (* 2.0 _a_0_) _a_1_) (* _a_2_ _a_2_))))))
 (let ((?x102 (- (- ?x9 l_1_1_12) (* l_1_1_13 (- (- _a_0_ (* (/ 51.0 100.0) _a_1_)) (* (/ 7.0 5.0) _a_2_))))))
 (let ((?x87 (- (- (- (- (- ?x102 ?x103) ?x105) l_1_1_5) l_1_1_6) (* l_1_1_7 (- (- _a_0_ (* (/ 51.0 100.0) _a_1_)) (* (/ 7.0 5.0) _a_2_))))))
 (= (- (- ?x87 ?x12) 1.0) 0.0)))))))))
(assert
 (let ((?x424 (* (/ 357.0 250.0) l_1_1_8)))
 (let ((?x198 (* (/ 7.0 5.0) l_1_1_6)))
 (let ((?x196 (* (/ 7.0 5.0) l_1_1_5)))
 (let ((?x193 (* (/ 7.0 5.0) l_1_1_12)))
 (let ((?x487 (* _a_2_ l_1_1_9)))
 (let ((?x485 (* _a_2_ l_1_1_4)))
 (let ((?x181 (* _a_2_ l_1_1_1)))
 (let ((?x189 (- (- (- (* (* (* (- 2.0) _a_0_) _a_2_) l_1_1_11) ?x181) ?x485) ?x487)))
 (let ((?x321 (- (+ ?x189 ?x193) (* l_1_1_13 (- (* (- (/ 7.0 5.0)) _a_0_) (* (/ 51.0 100.0) _a_2_))))))
 (let ((?x428 (- (+ (+ (- ?x321 (* (* 2.0 l_1_1_15) l_1_1_16)) ?x196) ?x198) (* l_1_1_7 (- (* (- (/ 7.0 5.0)) _a_0_) (* (/ 51.0 100.0) _a_2_))))))
 (= (+ (- ?x428 ?x424) (/ 1.0 2.0)) 0.0))))))))))))
(assert
 (let ((?x277 (- (* (* (* (- 2.0) _a_1_) _a_2_) l_1_1_11) (* l_1_1_13 (+ (* (- (/ 7.0 5.0)) _a_1_) _a_2_)))))
 (let ((?x206 (+ (- ?x277 (* l_1_1_7 (+ (* (- (/ 7.0 5.0)) _a_1_) _a_2_))) (* (/ 14.0 5.0) l_1_1_8))))
 (= ?x206 0.0))))
(assert
 (let ((?x531 (- (- (* (- _a_1_) l_1_1_13) (* _a_1_ l_1_1_7)) (* (* l_1_1_11 _a_1_) _a_1_))))
 (= (- ?x531 l_1_1_8) 0.0)))
(assert
 (>= l_1_1_1 0.0))
(assert
 (>= l_1_1_2 0.0))
(assert
 (>= l_1_1_3 0.0))
(assert
 (>= l_1_1_4 0.0))
(assert
 (>= l_1_1_5 0.0))
(assert
 (>= l_1_1_6 0.0))
(assert
 (>= l_1_1_7 0.0))
(assert
 (>= l_1_1_8 0.0))
(assert
 (>= l_1_1_9 0.0))
(assert
 (>= l_1_1_10 0.0))
(assert
 (>= l_1_1_11 0.0))
(assert
 (>= l_1_1_12 0.0))
(assert
 (>= l_1_1_13 0.0))
(assert
 (>= l_1_1_14 0.0))
(assert
 (>= l_1_1_15 0.0))
(assert
 (>= l_1_1_17 0.0))
(assert
 (let ((?x584 (* (/ 2601.0 10000.0) l_1_2_4)))
 (let ((?x582 (* (/ 51.0 100.0) l_1_2_2)))
 (let ((?x580 (* l_1_2_15 l_1_2_15)))
 (let ((?x576 (* (/ 51.0 100.0) l_1_2_11)))
 (let ((?x574 (* (/ 51.0 100.0) l_1_2_10)))
 (let ((?x570 (* _a_0_ l_1_2_8)))
 (let ((?x566 (* _a_0_ l_1_2_5)))
 (let ((?x569 (- (- (- (* (* (- (/ 51.0 100.0)) _a_0_) l_1_2_12) (* _a_0_ l_1_2_3)) ?x566) (* (* (/ 51.0 100.0) _a_0_) l_1_2_7))))
 (let ((?x578 (- (- (- (- (+ (- ?x569 ?x570) _a_0_) l_1_2_1) ?x574) ?x576) l_1_2_13)))
 (let ((?x589 (- (- (- (- (- (- ?x578 l_1_2_14) ?x580) ?x582) ?x584) l_1_2_6) (* (* l_1_2_9 _a_0_) _a_0_))))
 (= ?x589 0.0))))))))))))
(assert
 (let ((?x59 (* (/ 7.0 5.0) _a_2_)))
 (let ((?x659 (+ (+ (- _a_0_) (* (/ 51.0 100.0) _a_1_)) ?x59)))
 (let ((?x667 (* (/ 47.0 50.0) l_1_2_4)))
 (let ((?x664 (* l_1_2_17 l_1_2_17)))
 (let ((?x662 (* l_1_2_16 l_1_2_16)))
 (let ((?x654 (* (/ 8.0 5.0) _a_2_)))
 (let ((?x651 (* (/ 64.0 25.0) _a_1_)))
 (let ((?x648 (* _a_1_ l_1_2_8)))
 (let ((?x652 (+ (- (- (* (- _a_1_) l_1_2_3) (* _a_1_ l_1_2_5)) ?x648) ?x651)))
 (let ((?x663 (- (- (+ (+ (+ ?x652 ?x654) l_1_2_10) l_1_2_11) (* l_1_2_12 ?x659)) ?x662)))
 (let ((?x672 (- (- (- (+ (- ?x663 ?x664) l_1_2_2) ?x667) (* l_1_2_7 ?x659)) (* l_1_2_9 (+ (* (* 2.0 _a_0_) _a_1_) (* _a_2_ _a_2_))))))
 (= ?x672 0.0)))))))))))))
(assert
 (let ((?x774 (* (/ 14.0 5.0) l_1_2_4)))
 (let ((?x773 (- (- (* (* (* (- 2.0) _a_1_) _a_2_) l_1_2_9) (* (/ 128.0 25.0) _a_1_)) (* l_1_2_12 (- (* (/ 7.0 5.0) _a_1_) _a_2_)))))
 (= (- (+ ?x773 ?x774) (* l_1_2_7 (- (* (/ 7.0 5.0) _a_1_) _a_2_))) 0.0))))
(assert
 (let ((?x651 (* (/ 64.0 25.0) _a_1_)))
 (let ((?x829 (- (+ (+ (* _a_1_ l_1_2_12) (* _a_1_ l_1_2_7)) ?x651) l_1_2_4)))
 (= (- ?x829 (* (* l_1_2_9 _a_1_) _a_1_)) 0.0))))
(assert
 (let ((?x864 (* (/ 357.0 250.0) l_1_2_4)))
 (let ((?x862 (* (/ 7.0 5.0) l_1_2_2)))
 (let ((?x853 (* (/ 7.0 5.0) l_1_2_11)))
 (let ((?x851 (* (/ 7.0 5.0) l_1_2_10)))
 (let ((?x654 (* (/ 8.0 5.0) _a_2_)))
 (let ((?x848 (* _a_2_ l_1_2_8)))
 (let ((?x846 (* _a_2_ l_1_2_5)))
 (let ((?x844 (* _a_2_ l_1_2_3)))
 (let ((?x849 (- (- (- (* (* (* (- 2.0) _a_0_) _a_2_) l_1_2_9) ?x844) ?x846) ?x848)))
 (let ((?x858 (- (- (- (- ?x849 ?x654) ?x851) ?x853) (* l_1_2_12 (+ (* (/ 7.0 5.0) _a_0_) (* (/ 51.0 100.0) _a_2_))))))
 (let ((?x867 (- (- (- (- ?x858 (* (* 2.0 l_1_2_15) l_1_2_16)) ?x862) ?x864) (* l_1_2_7 (+ (* (/ 7.0 5.0) _a_0_) (* (/ 51.0 100.0) _a_2_))))))
 (= ?x867 0.0)))))))))))))
(assert
 (>= l_1_2_1 0.0))
(assert
 (>= l_1_2_2 0.0))
(assert
 (>= l_1_2_3 0.0))
(assert
 (>= l_1_2_4 0.0))
(assert
 (>= l_1_2_5 0.0))
(assert
 (>= l_1_2_6 0.0))
(assert
 (>= l_1_2_7 0.0))
(assert
 (>= l_1_2_8 0.0))
(assert
 (>= l_1_2_9 0.0))
(assert
 (>= l_1_2_10 0.0))
(assert
 (>= l_1_2_11 0.0))
(assert
 (>= l_1_2_12 0.0))
(assert
 (>= l_1_2_13 0.0))
(assert
 (>= l_1_2_14 0.0))
(assert
 (>= l_1_2_15 0.0))
(assert
 (>= l_1_2_17 0.0))
(check-sat)
(get-model)